Version identifier: 12.10.0.0 | 2019-11-26 | 843d4de
CPXPARAM_WorkMem                                 28672
Tried aggregator 2 times.
Aggregator did 45 substitutions.
Reduced MIP has 245 rows, 300 columns, and 1130 nonzeros.
Reduced MIP has 300 binaries, 0 generals, 0 SOSs, and 0 indicators.
Presolve time = 0,00 sec. (1,08 ticks)
Found incumbent of value 1060,000000 after 0,00 sec. (1,77 ticks)
Probing time = 0,00 sec. (0,43 ticks)
Tried aggregator 1 time.
Detecting symmetries...
MIP Presolve eliminated 60 rows and 0 columns.
MIP Presolve added 120 rows and 0 columns.
Reduced MIP has 305 rows, 300 columns, and 1190 nonzeros.
Reduced MIP has 300 binaries, 0 generals, 0 SOSs, and 0 indicators.
Presolve time = 0,00 sec. (1,52 ticks)
Probing time = 0,00 sec. (0,42 ticks)
Clique table members: 770.
MIP emphasis: balance optimality and feasibility.
MIP search method: dynamic search.
Parallel mode: deterministic, using up to 16 threads.
Root relaxation solution time = 0,00 sec. (1,31 ticks)

        Nodes                                         Cuts/
   Node  Left     Objective  IInf  Best Integer    Best Bound    ItCnt     Gap

*     0+    0                         1060,0000        0,0000           100,00%
*     0+    0                          490,0000        0,0000           100,00%
*     0+    0                          470,0000        0,0000           100,00%
*     0+    0                          441,0000        0,0000           100,00%
      0     0      212,0000   121      441,0000      212,0000      124   51,93%
      0     0      212,0000   121      441,0000     Cuts: 176      212   51,93%
*     0+    0                          435,0000      212,0000            51,26%
      0     0      212,4176   121      435,0000     Cuts: 176      317   51,17%
      0     0      213,1151   121      435,0000     Cuts: 119      347   51,01%
      0     0      213,3047   121      435,0000      Cuts: 23      369   50,96%
      0     0      213,3783   121      435,0000      Cuts: 90      385   50,95%
      0     0      251,4803   121      435,0000     Cuts: 176      589   42,19%
      0     0      254,9381   121      435,0000     Cuts: 126      632   41,39%
      0     0      255,8649   121      435,0000     Cuts: 133      658   41,18%
      0     0      256,5714   121      435,0000      Cuts: 69      686   41,02%
      0     0      256,5856   121      435,0000       Cuts: 4      689   41,01%
*     0+    0                          433,0000      256,5856            40,74%
*     0+    0                          399,0000      256,5856            35,69%
      0     2      256,5856   231      399,0000      256,5856      689   35,69%
Elapsed time = 0,17 sec. (102,44 ticks, tree = 0,02 MB, solutions = 7)
*  1417   460      integral     0      395,0000      314,1058    35608   20,48%

Clique cuts applied:  37
Cover cuts applied:  210
Flow cuts applied:  7
Mixed integer rounding cuts applied:  96
Zero-half cuts applied:  7
Gomory fractional cuts applied:  2

Root node processing (before b&c):
  Real time             =    0,17 sec. (102,21 ticks)
Parallel b&c, 16 threads:
  Real time             =    0,17 sec. (116,05 ticks)
  Sync time (average)   =    0,06 sec.
  Wait time (average)   =    0,00 sec.
                          ------------
Total (root+branch&cut) =    0,34 sec. (218,27 ticks)
